(set-info :source |printed by MathSAT|)
(declare-fun |!{$(in_main#0)<N>}| () Int)
(declare-fun |!{$(in_main#0)<N>}.next| () Int)
(declare-fun |!{$(in_main#0)<a>}| () Int)
(declare-fun |!{$(in_main#0)<a>}.next| () Int)
(declare-fun |!{$(in_main#0)<i>}| () Int)
(declare-fun |!{$(in_main#0)<i>}.next| () Int)
(declare-fun |!{$(in_main#0)<x>}| () Int)
(declare-fun |!{$(in_main#0)<x>}.next| () Int)
(declare-fun |!{$(in_main#0)<a1.1>}| () (Array Int Int))
(declare-fun |!{$(in_main#0)<a1.1>}.next| () (Array Int Int))
(declare-fun |!{$(in_main#0)<a2.2>}| () (Array Int Int))
(declare-fun |!{$(in_main#0)<a2.2>}.next| () (Array Int Int))
(declare-fun |!{$(in_main#0)<a3.3>}| () (Array Int Int))
(declare-fun |!{$(in_main#0)<a3.3>}.next| () (Array Int Int))
(declare-fun |!{$(in_main#0)<a4.4>}| () (Array Int Int))
(declare-fun |!{$(in_main#0)<a4.4>}.next| () (Array Int Int))
(declare-fun |!{$(in_main#0)<a5.5>}| () (Array Int Int))
(declare-fun |!{$(in_main#0)<a5.5>}.next| () (Array Int Int))
(declare-fun |!{$(in_main#0)<a6.6>}| () (Array Int Int))
(declare-fun |!{$(in_main#0)<a6.6>}.next| () (Array Int Int))
(declare-fun |!{$(in_main#0)<a7.7>}| () (Array Int Int))
(declare-fun |!{$(in_main#0)<a7.7>}.next| () (Array Int Int))
(declare-fun |!{$(in_main#0)<a8.8>}| () (Array Int Int))
(declare-fun |!{$(in_main#0)<a8.8>}.next| () (Array Int Int))
(declare-fun |!{$(in_main#0)<a9.9>}| () (Array Int Int))
(declare-fun |!{$(in_main#0)<a9.9>}.next| () (Array Int Int))
(declare-fun |!{$(in_main#0)<$(in___VERIFIER_nondet_int#0)<h#<__VERIFIER_nondet_int.return>>>}| () Int)
(declare-fun |!{$(in_main#0)<$(in___VERIFIER_nondet_int#1)<h#<__VERIFIER_nondet_int.return>>>}| () Int)
(declare-fun !pc () Int)
(declare-fun !pc.next () Int)
(declare-fun |%{$(in_main#0)<i>}#1| () Int)
(declare-fun |%{$(in_main#0)<x>}#1| () Int)
(declare-fun |%{$(in_main#0)<a1.1>}#1| () (Array Int Int))
(declare-fun |%{$(in_main#0)<a2.2>}#1| () (Array Int Int))
(declare-fun |%{$(in_main#0)<a3.3>}#1| () (Array Int Int))
(declare-fun |%{$(in_main#0)<a4.4>}#1| () (Array Int Int))
(declare-fun |%{$(in_main#0)<a5.5>}#1| () (Array Int Int))
(declare-fun |%{$(in_main#0)<a6.6>}#1| () (Array Int Int))
(declare-fun |%{$(in_main#0)<a7.7>}#1| () (Array Int Int))
(declare-fun |%{$(in_main#0)<a8.8>}#1| () (Array Int Int))
(declare-fun |%{$(in_main#0)<a9.9>}#1| () (Array Int Int))
(define-fun .def_55 () Int (! !pc :next !pc.next))
(define-fun .def_58 () Bool (! (= .def_55 2) :init true))
(define-fun .def_396 () Bool (= .def_55 42))
(define-fun .def_367 () Bool (= !pc.next 63))
(define-fun .def_399 () Bool (and .def_367 .def_396))
(define-fun .def_10 () Int (! |!{$(in_main#0)<a>}| :next |!{$(in_main#0)<a>}.next|))
(define-fun .def_8 () Int (! |!{$(in_main#0)<N>}| :next |!{$(in_main#0)<N>}.next|))
(define-fun .def_374 () Bool (<= .def_8 .def_10))
(define-fun .def_241 () Bool (= |!{$(in_main#0)<i>}.next| 0))
(define-fun .def_120 () Bool (= .def_10 |!{$(in_main#0)<a>}.next|))
(define-fun .def_118 () Bool (= .def_8 |!{$(in_main#0)<N>}.next|))
(define-fun .def_145 () Bool (and .def_118 .def_120))
(define-fun .def_242 () Bool (and .def_145 .def_241))
(define-fun .def_14 () Int (! |!{$(in_main#0)<x>}| :next |!{$(in_main#0)<x>}.next|))
(define-fun .def_124 () Bool (= .def_14 |!{$(in_main#0)<x>}.next|))
(define-fun .def_243 () Bool (and .def_124 .def_242))
(define-fun .def_16 () (Array Int Int) (! |!{$(in_main#0)<a1.1>}| :next |!{$(in_main#0)<a1.1>}.next|))
(define-fun .def_126 () Bool (= .def_16 |!{$(in_main#0)<a1.1>}.next|))
(define-fun .def_244 () Bool (and .def_126 .def_243))
(define-fun .def_18 () (Array Int Int) (! |!{$(in_main#0)<a2.2>}| :next |!{$(in_main#0)<a2.2>}.next|))
(define-fun .def_128 () Bool (= .def_18 |!{$(in_main#0)<a2.2>}.next|))
(define-fun .def_245 () Bool (and .def_128 .def_244))
(define-fun .def_20 () (Array Int Int) (! |!{$(in_main#0)<a3.3>}| :next |!{$(in_main#0)<a3.3>}.next|))
(define-fun .def_130 () Bool (= .def_20 |!{$(in_main#0)<a3.3>}.next|))
(define-fun .def_246 () Bool (and .def_130 .def_245))
(define-fun .def_22 () (Array Int Int) (! |!{$(in_main#0)<a4.4>}| :next |!{$(in_main#0)<a4.4>}.next|))
(define-fun .def_132 () Bool (= .def_22 |!{$(in_main#0)<a4.4>}.next|))
(define-fun .def_247 () Bool (and .def_132 .def_246))
(define-fun .def_24 () (Array Int Int) (! |!{$(in_main#0)<a5.5>}| :next |!{$(in_main#0)<a5.5>}.next|))
(define-fun .def_134 () Bool (= .def_24 |!{$(in_main#0)<a5.5>}.next|))
(define-fun .def_248 () Bool (and .def_134 .def_247))
(define-fun .def_26 () (Array Int Int) (! |!{$(in_main#0)<a6.6>}| :next |!{$(in_main#0)<a6.6>}.next|))
(define-fun .def_136 () Bool (= .def_26 |!{$(in_main#0)<a6.6>}.next|))
(define-fun .def_249 () Bool (and .def_136 .def_248))
(define-fun .def_28 () (Array Int Int) (! |!{$(in_main#0)<a7.7>}| :next |!{$(in_main#0)<a7.7>}.next|))
(define-fun .def_138 () Bool (= .def_28 |!{$(in_main#0)<a7.7>}.next|))
(define-fun .def_250 () Bool (and .def_138 .def_249))
(define-fun .def_30 () (Array Int Int) (! |!{$(in_main#0)<a8.8>}| :next |!{$(in_main#0)<a8.8>}.next|))
(define-fun .def_140 () Bool (= .def_30 |!{$(in_main#0)<a8.8>}.next|))
(define-fun .def_251 () Bool (and .def_140 .def_250))
(define-fun .def_32 () (Array Int Int) (! |!{$(in_main#0)<a9.9>}| :next |!{$(in_main#0)<a9.9>}.next|))
(define-fun .def_142 () Bool (= .def_32 |!{$(in_main#0)<a9.9>}.next|))
(define-fun .def_252 () Bool (and .def_142 .def_251))
(define-fun .def_395 () Bool (and .def_252 .def_374))
(define-fun .def_400 () Bool (and .def_395 .def_399))
(define-fun .def_104 () Bool (= !pc.next 42))
(define-fun .def_397 () Bool (and .def_104 .def_396))
(define-fun .def_376 () (Array Int Int) (store .def_16 .def_10 |!{$(in_main#0)<$(in___VERIFIER_nondet_int#1)<h#<__VERIFIER_nondet_int.return>>>}|))
(define-fun .def_384 () Bool (= |!{$(in_main#0)<a1.1>}.next| .def_376))
(define-fun .def_378 () Int (* (- 1) |!{$(in_main#0)<a>}.next|))
(define-fun .def_379 () Int (+ .def_10 .def_378))
(define-fun .def_380 () Bool (= .def_379 (- 1)))
(define-fun .def_381 () Bool (and .def_118 .def_380))
(define-fun .def_12 () Int (! |!{$(in_main#0)<i>}| :next |!{$(in_main#0)<i>}.next|))
(define-fun .def_122 () Bool (= .def_12 |!{$(in_main#0)<i>}.next|))
(define-fun .def_382 () Bool (and .def_122 .def_381))
(define-fun .def_383 () Bool (and .def_124 .def_382))
(define-fun .def_385 () Bool (and .def_383 .def_384))
(define-fun .def_386 () Bool (and .def_128 .def_385))
(define-fun .def_387 () Bool (and .def_130 .def_386))
(define-fun .def_388 () Bool (and .def_132 .def_387))
(define-fun .def_389 () Bool (and .def_134 .def_388))
(define-fun .def_390 () Bool (and .def_136 .def_389))
(define-fun .def_391 () Bool (and .def_138 .def_390))
(define-fun .def_392 () Bool (and .def_140 .def_391))
(define-fun .def_393 () Bool (and .def_142 .def_392))
(define-fun .def_375 () Bool (not .def_374))
(define-fun .def_394 () Bool (and .def_375 .def_393))
(define-fun .def_398 () Bool (and .def_394 .def_397))
(define-fun .def_401 () Bool (or .def_398 .def_400))
(define-fun .def_366 () Bool (= .def_55 63))
(define-fun .def_346 () Bool (= !pc.next 77))
(define-fun .def_370 () Bool (and .def_346 .def_366))
(define-fun .def_193 () Bool (<= .def_8 .def_12))
(define-fun .def_253 () Bool (and .def_193 .def_252))
(define-fun .def_371 () Bool (and .def_253 .def_370))
(define-fun .def_368 () Bool (and .def_366 .def_367))
(define-fun .def_353 () Int (select .def_16 .def_12))
(define-fun .def_354 () (Array Int Int) (store .def_18 .def_12 .def_353))
(define-fun .def_355 () Bool (= |!{$(in_main#0)<a2.2>}.next| .def_354))
(define-fun .def_198 () Int (* (- 1) |!{$(in_main#0)<i>}.next|))
(define-fun .def_199 () Int (+ .def_12 .def_198))
(define-fun .def_200 () Bool (= .def_199 (- 1)))
(define-fun .def_201 () Bool (and .def_145 .def_200))
(define-fun .def_202 () Bool (and .def_124 .def_201))
(define-fun .def_203 () Bool (and .def_126 .def_202))
(define-fun .def_356 () Bool (and .def_203 .def_355))
(define-fun .def_357 () Bool (and .def_130 .def_356))
(define-fun .def_358 () Bool (and .def_132 .def_357))
(define-fun .def_359 () Bool (and .def_134 .def_358))
(define-fun .def_360 () Bool (and .def_136 .def_359))
(define-fun .def_361 () Bool (and .def_138 .def_360))
(define-fun .def_362 () Bool (and .def_140 .def_361))
(define-fun .def_363 () Bool (and .def_142 .def_362))
(define-fun .def_194 () Bool (not .def_193))
(define-fun .def_364 () Bool (and .def_194 .def_363))
(define-fun .def_369 () Bool (and .def_364 .def_368))
(define-fun .def_372 () Bool (or .def_369 .def_371))
(define-fun .def_345 () Bool (= .def_55 77))
(define-fun .def_326 () Bool (= !pc.next 91))
(define-fun .def_349 () Bool (and .def_326 .def_345))
(define-fun .def_350 () Bool (and .def_253 .def_349))
(define-fun .def_347 () Bool (and .def_345 .def_346))
(define-fun .def_333 () Int (select .def_18 .def_12))
(define-fun .def_334 () (Array Int Int) (store .def_20 .def_12 .def_333))
(define-fun .def_335 () Bool (= |!{$(in_main#0)<a3.3>}.next| .def_334))
(define-fun .def_204 () Bool (and .def_128 .def_203))
(define-fun .def_336 () Bool (and .def_204 .def_335))
(define-fun .def_337 () Bool (and .def_132 .def_336))
(define-fun .def_338 () Bool (and .def_134 .def_337))
(define-fun .def_339 () Bool (and .def_136 .def_338))
(define-fun .def_340 () Bool (and .def_138 .def_339))
(define-fun .def_341 () Bool (and .def_140 .def_340))
(define-fun .def_342 () Bool (and .def_142 .def_341))
(define-fun .def_343 () Bool (and .def_194 .def_342))
(define-fun .def_348 () Bool (and .def_343 .def_347))
(define-fun .def_351 () Bool (or .def_348 .def_350))
(define-fun .def_325 () Bool (= .def_55 91))
(define-fun .def_307 () Bool (= !pc.next 105))
(define-fun .def_329 () Bool (and .def_307 .def_325))
(define-fun .def_330 () Bool (and .def_253 .def_329))
(define-fun .def_327 () Bool (and .def_325 .def_326))
(define-fun .def_314 () Int (select .def_20 .def_12))
(define-fun .def_315 () (Array Int Int) (store .def_22 .def_12 .def_314))
(define-fun .def_316 () Bool (= |!{$(in_main#0)<a4.4>}.next| .def_315))
(define-fun .def_205 () Bool (and .def_130 .def_204))
(define-fun .def_317 () Bool (and .def_205 .def_316))
(define-fun .def_318 () Bool (and .def_134 .def_317))
(define-fun .def_319 () Bool (and .def_136 .def_318))
(define-fun .def_320 () Bool (and .def_138 .def_319))
(define-fun .def_321 () Bool (and .def_140 .def_320))
(define-fun .def_322 () Bool (and .def_142 .def_321))
(define-fun .def_323 () Bool (and .def_194 .def_322))
(define-fun .def_328 () Bool (and .def_323 .def_327))
(define-fun .def_331 () Bool (or .def_328 .def_330))
(define-fun .def_306 () Bool (= .def_55 105))
(define-fun .def_289 () Bool (= !pc.next 119))
(define-fun .def_310 () Bool (and .def_289 .def_306))
(define-fun .def_311 () Bool (and .def_253 .def_310))
(define-fun .def_308 () Bool (and .def_306 .def_307))
(define-fun .def_296 () Int (select .def_22 .def_12))
(define-fun .def_297 () (Array Int Int) (store .def_24 .def_12 .def_296))
(define-fun .def_298 () Bool (= |!{$(in_main#0)<a5.5>}.next| .def_297))
(define-fun .def_206 () Bool (and .def_132 .def_205))
(define-fun .def_299 () Bool (and .def_206 .def_298))
(define-fun .def_300 () Bool (and .def_136 .def_299))
(define-fun .def_301 () Bool (and .def_138 .def_300))
(define-fun .def_302 () Bool (and .def_140 .def_301))
(define-fun .def_303 () Bool (and .def_142 .def_302))
(define-fun .def_304 () Bool (and .def_194 .def_303))
(define-fun .def_309 () Bool (and .def_304 .def_308))
(define-fun .def_312 () Bool (or .def_309 .def_311))
(define-fun .def_288 () Bool (= .def_55 119))
(define-fun .def_272 () Bool (= !pc.next 133))
(define-fun .def_292 () Bool (and .def_272 .def_288))
(define-fun .def_293 () Bool (and .def_253 .def_292))
(define-fun .def_290 () Bool (and .def_288 .def_289))
(define-fun .def_279 () Int (select .def_24 .def_12))
(define-fun .def_280 () (Array Int Int) (store .def_26 .def_12 .def_279))
(define-fun .def_281 () Bool (= |!{$(in_main#0)<a6.6>}.next| .def_280))
(define-fun .def_207 () Bool (and .def_134 .def_206))
(define-fun .def_282 () Bool (and .def_207 .def_281))
(define-fun .def_283 () Bool (and .def_138 .def_282))
(define-fun .def_284 () Bool (and .def_140 .def_283))
(define-fun .def_285 () Bool (and .def_142 .def_284))
(define-fun .def_286 () Bool (and .def_194 .def_285))
(define-fun .def_291 () Bool (and .def_286 .def_290))
(define-fun .def_294 () Bool (or .def_291 .def_293))
(define-fun .def_271 () Bool (= .def_55 133))
(define-fun .def_256 () Bool (= !pc.next 147))
(define-fun .def_275 () Bool (and .def_256 .def_271))
(define-fun .def_276 () Bool (and .def_253 .def_275))
(define-fun .def_273 () Bool (and .def_271 .def_272))
(define-fun .def_263 () Int (select .def_26 .def_12))
(define-fun .def_264 () (Array Int Int) (store .def_28 .def_12 .def_263))
(define-fun .def_265 () Bool (= |!{$(in_main#0)<a7.7>}.next| .def_264))
(define-fun .def_208 () Bool (and .def_136 .def_207))
(define-fun .def_266 () Bool (and .def_208 .def_265))
(define-fun .def_267 () Bool (and .def_140 .def_266))
(define-fun .def_268 () Bool (and .def_142 .def_267))
(define-fun .def_269 () Bool (and .def_194 .def_268))
(define-fun .def_274 () Bool (and .def_269 .def_273))
(define-fun .def_277 () Bool (or .def_274 .def_276))
(define-fun .def_255 () Bool (= .def_55 147))
(define-fun .def_228 () Bool (= !pc.next 161))
(define-fun .def_259 () Bool (and .def_228 .def_255))
(define-fun .def_260 () Bool (and .def_253 .def_259))
(define-fun .def_257 () Bool (and .def_255 .def_256))
(define-fun .def_235 () Int (select .def_28 .def_12))
(define-fun .def_236 () (Array Int Int) (store .def_30 .def_12 .def_235))
(define-fun .def_237 () Bool (= |!{$(in_main#0)<a8.8>}.next| .def_236))
(define-fun .def_209 () Bool (and .def_138 .def_208))
(define-fun .def_238 () Bool (and .def_209 .def_237))
(define-fun .def_239 () Bool (and .def_142 .def_238))
(define-fun .def_240 () Bool (and .def_194 .def_239))
(define-fun .def_258 () Bool (and .def_240 .def_257))
(define-fun .def_261 () Bool (or .def_258 .def_260))
(define-fun .def_227 () Bool (= .def_55 161))
(define-fun .def_182 () Bool (= !pc.next 175))
(define-fun .def_231 () Bool (and .def_182 .def_227))
(define-fun .def_214 () Bool (= |!{$(in_main#0)<x>}.next| 0))
(define-fun .def_146 () Bool (and .def_122 .def_145))
(define-fun .def_215 () Bool (and .def_146 .def_214))
(define-fun .def_216 () Bool (and .def_126 .def_215))
(define-fun .def_217 () Bool (and .def_128 .def_216))
(define-fun .def_218 () Bool (and .def_130 .def_217))
(define-fun .def_219 () Bool (and .def_132 .def_218))
(define-fun .def_220 () Bool (and .def_134 .def_219))
(define-fun .def_221 () Bool (and .def_136 .def_220))
(define-fun .def_222 () Bool (and .def_138 .def_221))
(define-fun .def_223 () Bool (and .def_140 .def_222))
(define-fun .def_224 () Bool (and .def_142 .def_223))
(define-fun .def_225 () Bool (and .def_193 .def_224))
(define-fun .def_232 () Bool (and .def_225 .def_231))
(define-fun .def_229 () Bool (and .def_227 .def_228))
(define-fun .def_195 () Int (select .def_30 .def_12))
(define-fun .def_196 () (Array Int Int) (store .def_32 .def_12 .def_195))
(define-fun .def_211 () Bool (= |!{$(in_main#0)<a9.9>}.next| .def_196))
(define-fun .def_210 () Bool (and .def_140 .def_209))
(define-fun .def_212 () Bool (and .def_210 .def_211))
(define-fun .def_213 () Bool (and .def_194 .def_212))
(define-fun .def_230 () Bool (and .def_213 .def_229))
(define-fun .def_233 () Bool (or .def_230 .def_232))
(define-fun .def_186 () Bool (= !pc.next 0))
(define-fun .def_177 () Bool (= .def_55 175))
(define-fun .def_187 () Bool (and .def_177 .def_186))
(define-fun .def_107 () Bool (<= .def_8 .def_14))
(define-fun .def_163 () Bool (and .def_107 .def_118))
(define-fun .def_164 () Bool (and .def_120 .def_163))
(define-fun .def_165 () Bool (and .def_122 .def_164))
(define-fun .def_166 () Bool (and .def_124 .def_165))
(define-fun .def_167 () Bool (and .def_126 .def_166))
(define-fun .def_168 () Bool (and .def_128 .def_167))
(define-fun .def_169 () Bool (and .def_130 .def_168))
(define-fun .def_170 () Bool (and .def_132 .def_169))
(define-fun .def_171 () Bool (and .def_134 .def_170))
(define-fun .def_172 () Bool (and .def_136 .def_171))
(define-fun .def_173 () Bool (and .def_138 .def_172))
(define-fun .def_174 () Bool (and .def_140 .def_173))
(define-fun .def_175 () Bool (and .def_142 .def_174))
(define-fun .def_188 () Bool (and .def_175 .def_187))
(define-fun .def_183 () Bool (and .def_177 .def_182))
(define-fun .def_148 () Int (* (- 1) |!{$(in_main#0)<x>}.next|))
(define-fun .def_149 () Int (+ .def_14 .def_148))
(define-fun .def_150 () Bool (= .def_149 (- 1)))
(define-fun .def_151 () Bool (and .def_146 .def_150))
(define-fun .def_152 () Bool (and .def_126 .def_151))
(define-fun .def_153 () Bool (and .def_128 .def_152))
(define-fun .def_154 () Bool (and .def_130 .def_153))
(define-fun .def_155 () Bool (and .def_132 .def_154))
(define-fun .def_156 () Bool (and .def_134 .def_155))
(define-fun .def_157 () Bool (and .def_136 .def_156))
(define-fun .def_158 () Bool (and .def_138 .def_157))
(define-fun .def_159 () Bool (and .def_140 .def_158))
(define-fun .def_160 () Bool (and .def_142 .def_159))
(define-fun .def_110 () Int (select .def_32 .def_14))
(define-fun .def_109 () Int (select .def_16 .def_14))
(define-fun .def_111 () Bool (= .def_109 .def_110))
(define-fun .def_112 () Int (ite .def_111 1 0))
(define-fun .def_113 () Bool (= .def_112 0))
(define-fun .def_114 () Bool (not .def_113))
(define-fun .def_161 () Bool (and .def_114 .def_160))
(define-fun .def_108 () Bool (not .def_107))
(define-fun .def_162 () Bool (and .def_108 .def_161))
(define-fun .def_184 () Bool (and .def_162 .def_183))
(define-fun .def_179 () Bool (= !pc.next 195))
(define-fun .def_180 () Bool (and .def_177 .def_179))
(define-fun .def_119 () Bool (and .def_113 .def_118))
(define-fun .def_121 () Bool (and .def_119 .def_120))
(define-fun .def_123 () Bool (and .def_121 .def_122))
(define-fun .def_125 () Bool (and .def_123 .def_124))
(define-fun .def_127 () Bool (and .def_125 .def_126))
(define-fun .def_129 () Bool (and .def_127 .def_128))
(define-fun .def_131 () Bool (and .def_129 .def_130))
(define-fun .def_133 () Bool (and .def_131 .def_132))
(define-fun .def_135 () Bool (and .def_133 .def_134))
(define-fun .def_137 () Bool (and .def_135 .def_136))
(define-fun .def_139 () Bool (and .def_137 .def_138))
(define-fun .def_141 () Bool (and .def_139 .def_140))
(define-fun .def_143 () Bool (and .def_141 .def_142))
(define-fun .def_144 () Bool (and .def_108 .def_143))
(define-fun .def_181 () Bool (and .def_144 .def_180))
(define-fun .def_185 () Bool (or .def_181 .def_184))
(define-fun .def_189 () Bool (or .def_185 .def_188))
(define-fun .def_105 () Bool (and .def_58 .def_104))
(define-fun .def_101 () Bool (= |!{$(in_main#0)<a9.9>}.next| |%{$(in_main#0)<a9.9>}#1|))
(define-fun .def_99 () Bool (= |!{$(in_main#0)<a8.8>}.next| |%{$(in_main#0)<a8.8>}#1|))
(define-fun .def_97 () Bool (= |!{$(in_main#0)<a7.7>}.next| |%{$(in_main#0)<a7.7>}#1|))
(define-fun .def_95 () Bool (= |!{$(in_main#0)<a6.6>}.next| |%{$(in_main#0)<a6.6>}#1|))
(define-fun .def_93 () Bool (= |!{$(in_main#0)<a5.5>}.next| |%{$(in_main#0)<a5.5>}#1|))
(define-fun .def_91 () Bool (= |!{$(in_main#0)<a4.4>}.next| |%{$(in_main#0)<a4.4>}#1|))
(define-fun .def_89 () Bool (= |!{$(in_main#0)<a3.3>}.next| |%{$(in_main#0)<a3.3>}#1|))
(define-fun .def_87 () Bool (= |!{$(in_main#0)<a2.2>}.next| |%{$(in_main#0)<a2.2>}#1|))
(define-fun .def_85 () Bool (= |!{$(in_main#0)<a1.1>}.next| |%{$(in_main#0)<a1.1>}#1|))
(define-fun .def_83 () Bool (= |!{$(in_main#0)<x>}.next| |%{$(in_main#0)<x>}#1|))
(define-fun .def_81 () Bool (= |!{$(in_main#0)<i>}.next| |%{$(in_main#0)<i>}#1|))
(define-fun .def_79 () Bool (= |!{$(in_main#0)<a>}.next| 0))
(define-fun .def_78 () Bool (= |!{$(in_main#0)<N>}.next| |!{$(in_main#0)<$(in___VERIFIER_nondet_int#0)<h#<__VERIFIER_nondet_int.return>>>}|))
(define-fun .def_80 () Bool (and .def_78 .def_79))
(define-fun .def_82 () Bool (and .def_80 .def_81))
(define-fun .def_84 () Bool (and .def_82 .def_83))
(define-fun .def_86 () Bool (and .def_84 .def_85))
(define-fun .def_88 () Bool (and .def_86 .def_87))
(define-fun .def_90 () Bool (and .def_88 .def_89))
(define-fun .def_92 () Bool (and .def_90 .def_91))
(define-fun .def_94 () Bool (and .def_92 .def_93))
(define-fun .def_96 () Bool (and .def_94 .def_95))
(define-fun .def_98 () Bool (and .def_96 .def_97))
(define-fun .def_100 () Bool (and .def_98 .def_99))
(define-fun .def_102 () Bool (and .def_100 .def_101))
(define-fun .def_106 () Bool (and .def_102 .def_105))
(define-fun .def_190 () Bool (or .def_106 .def_189))
(define-fun .def_234 () Bool (or .def_190 .def_233))
(define-fun .def_262 () Bool (or .def_234 .def_261))
(define-fun .def_278 () Bool (or .def_262 .def_277))
(define-fun .def_295 () Bool (or .def_278 .def_294))
(define-fun .def_313 () Bool (or .def_295 .def_312))
(define-fun .def_332 () Bool (or .def_313 .def_331))
(define-fun .def_352 () Bool (or .def_332 .def_351))
(define-fun .def_373 () Bool (or .def_352 .def_372))
(define-fun .def_402 () Bool (! (or .def_373 .def_401) :trans true))
(define-fun .def_191 () Bool (= .def_55 195))
(define-fun .def_403 () Bool (! (not .def_191) :invar-property 0 :invar-property-name ||))
(assert true)
